% Número total de personas
n = 100;

% Número de opiniones posibles
m = 5;

% Distribución inicial de personas por opinión
p = [25, 25, 25, 25, 25];

% Valores de las opiniones
v = [0.289, 0.510, 0.683, 0.694, 0.948];

% Costos extras al mover a opiniones vacías
ce = [19.881, 14.216, 4.275, 4.857, 17.192];

% Matriz de costos de mover de una opinión a otra
C = array2d(1..5, 1..5,
  [
    0.000,    3.463,    0.739,    5.664,    4.900,
    5.875,    0.000,    1.762,    2.504,    3.202,
    1.008,    1.406,    0.000,    1.805,    0.115,
    3.236,    1.544,    2.733,    0.000,    2.055,
    3.871,    0.837,    5.086,    3.982,    0.000
  ]);

% Costo total máximo permitido
C_max = 40.440;

% Número máximo de movimientos permitidos
M_max = 31;
